VRPTWMS/instances/mip/freight/Comparison/N4-C_DV10-C_SV50_F10_0_No_1.lp
\ N4-C_DV10-C_SV50_F10_0

Minimize
  158100.0 x_d0_c1 + 158100.0 z_d0_c1 + 120800.0 x_d0_c2 + 120800.0 z_d0_c2 + 72800.0 x_d0_c3 + 72800.0 z_d0_c3 + 284300.0 x_d0_c4 + 284300.0 z_d0_c4 + 82500.0 x_c1_c2 + 82500.0 x_c2_c1 + 82500.0 z_c1_c2 + 82500.0 z_c2_c1 + 151300.0 x_c1_c3 + 151300.0 x_c3_c1 + 151300.0 z_c1_c3 + 151300.0 z_c3_c1 + 438400.0 x_c1_c4 + 438400.0 x_c4_c1 + 438400.0 z_c1_c4 + 438400.0 z_c4_c1 + 80600.0 x_c2_c3 + 80600.0 x_c3_c2 + 80600.0 z_c2_c3 + 80600.0 z_c3_c2 + 402200.0 x_c2_c4 + 402200.0 x_c4_c2 + 402200.0 z_c2_c4 + 402200.0 z_c4_c2 + 331200.0 x_c3_c4 + 331200.0 x_c4_c3 + 331200.0 z_c3_c4 + 331200.0 z_c4_c3 + 158100.0 x_c1_dN + 158100.0 z_c1_dN + 120800.0 x_c2_dN + 120800.0 z_c2_dN + 72800.0 x_c3_dN + 72800.0 z_c3_dN + 284300.0 x_c4_dN + 284300.0 z_c4_dN + 1.0E7 x_d0_c1 + 1.0E7 z_d0_c1 + 1.0E7 x_d0_c2 + 1.0E7 z_d0_c2 + 1.0E7 x_d0_c3 + 1.0E7 z_d0_c3 + 1.0E7 x_d0_c4 + 1.0E7 z_d0_c4
Subject To
  Successor_DV_c1: x_c1_c2 + x_c1_c3 + x_c1_c4 + x_c1_dN = 1
  Successor_DV_c2: x_c2_c1 + x_c2_c3 + x_c2_c4 + x_c2_dN = 1
  Successor_DV_c3: x_c3_c1 + x_c3_c2 + x_c3_c4 + x_c3_dN = 1
  Successor_DV_c4: x_c4_c1 + x_c4_c2 + x_c4_c3 + x_c4_dN = 1
  Successor_SV_c1: z_c1_c2 + z_c1_c3 + z_c1_c4 + z_c1_dN <= 1
  Successor_SV_c2: z_c2_c1 + z_c2_c3 + z_c2_c4 + z_c2_dN <= 1
  Successor_SV_c3: z_c3_c1 + z_c3_c2 + z_c3_c4 + z_c3_dN <= 1
  Successor_SV_c4: z_c4_c1 + z_c4_c2 + z_c4_c3 + z_c4_dN <= 1
  Flow_DV_c1: x_d0_c1 + x_c2_c1 + x_c3_c1 + x_c4_c1 - x_c1_dN - x_c1_c2 - x_c1_c3 - x_c1_c4 = 0
  Flow_DV_c2: x_d0_c2 + x_c1_c2 + x_c3_c2 + x_c4_c2 - x_c2_dN - x_c2_c1 - x_c2_c3 - x_c2_c4 = 0
  Flow_DV_c3: x_d0_c3 + x_c1_c3 + x_c2_c3 + x_c4_c3 - x_c3_dN - x_c3_c1 - x_c3_c2 - x_c3_c4 = 0
  Flow_DV_c4: x_d0_c4 + x_c1_c4 + x_c2_c4 + x_c3_c4 - x_c4_dN - x_c4_c1 - x_c4_c2 - x_c4_c3 = 0
  Flow_SV_c1: z_d0_c1 + z_c2_c1 + z_c3_c1 + z_c4_c1 - z_c1_dN - z_c1_c2 - z_c1_c3 - z_c1_c4 = 0
  Flow_SV_c2: z_d0_c2 + z_c1_c2 + z_c3_c2 + z_c4_c2 - z_c2_dN - z_c2_c1 - z_c2_c3 - z_c2_c4 = 0
  Flow_SV_c3: z_d0_c3 + z_c1_c3 + z_c2_c3 + z_c4_c3 - z_c3_dN - z_c3_c1 - z_c3_c2 - z_c3_c4 = 0
  Flow_SV_c4: z_d0_c4 + z_c1_c4 + z_c2_c4 + z_c3_c4 - z_c4_dN - z_c4_c1 - z_c4_c2 - z_c4_c3 = 0
  travelDV_d0_c1: tauD_d0 - tauD_c1 + 1039525.0 x_d0_c1 <= 1000000.0
  travelDV_d0_c2: tauD_d0 - tauD_c2 + 1030200.0 x_d0_c2 <= 1000000.0
  travelDV_d0_c3: tauD_d0 - tauD_c3 + 1018200.0 x_d0_c3 <= 1000000.0
  travelDV_d0_c4: tauD_d0 - tauD_c4 + 1071075.0 x_d0_c4 <= 1000000.0
  travelDV_c1_c2: tauD_c1 - tauD_c2 + 1100625.0 x_c1_c2 + 80000.0 p_1 <= 1000000.0
  travelDV_c1_c3: tauD_c1 - tauD_c3 + 1117825.0 x_c1_c3 + 80000.0 p_1 <= 1000000.0
  travelDV_c1_c4: tauD_c1 - tauD_c4 + 1189600.0 x_c1_c4 + 80000.0 p_1 <= 1000000.0
  travelDV_c2_c1: tauD_c2 - tauD_c1 + 1060625.0 x_c2_c1 + 80000.0 p_2 <= 1000000.0
  travelDV_c2_c3: tauD_c2 - tauD_c3 + 1060150.0 x_c2_c3 + 80000.0 p_2 <= 1000000.0
  travelDV_c2_c4: tauD_c2 - tauD_c4 + 1140550.0 x_c2_c4 + 80000.0 p_2 <= 1000000.0
  travelDV_c3_c1: tauD_c3 - tauD_c1 + 1097825.0 x_c3_c1 + 80000.0 p_3 <= 1000000.0
  travelDV_c3_c2: tauD_c3 - tauD_c2 + 1080150.0 x_c3_c2 + 80000.0 p_3 <= 1000000.0
  travelDV_c3_c4: tauD_c3 - tauD_c4 + 1142800.0 x_c3_c4 + 80000.0 p_3 <= 1000000.0
  travelDV_c4_c1: tauD_c4 - tauD_c1 + 1179600.0 x_c4_c1 + 80000.0 p_4 <= 1000000.0
  travelDV_c4_c2: tauD_c4 - tauD_c2 + 1170550.0 x_c4_c2 + 80000.0 p_4 <= 1000000.0
  travelDV_c4_c3: tauD_c4 - tauD_c3 + 1152800.0 x_c4_c3 + 80000.0 p_4 <= 1000000.0
  TravelSV_d0_c1: tauS_d0 - tauS_c1 + 1000000.0 z_d0_c1 <= 960475.0
  TravelSV_d0_c2: tauS_d0 - tauS_c2 + 1000000.0 z_d0_c2 <= 969800.0
  TravelSV_d0_c3: tauS_d0 - tauS_c3 + 1000000.0 z_d0_c3 <= 981800.0
  TravelSV_d0_c4: tauS_d0 - tauS_c4 + 1000000.0 z_d0_c4 <= 928925.0
  TravelSV_d0_dN: tauS_d0 - tauS_dN + 1000000.0 z_d0_dN <= 1000000.0
  TravelSV_c1_c2: tauS_c1 - tauS_c2 + 1000000.0 z_c1_c2 <= 899375.0
  TravelSV_c1_c3: tauS_c1 - tauS_c3 + 1000000.0 z_c1_c3 <= 882175.0
  TravelSV_c1_c4: tauS_c1 - tauS_c4 + 1000000.0 z_c1_c4 <= 810400.0
  TravelSV_c1_dN: tauS_c1 - tauS_dN + 1000000.0 z_c1_dN <= 880475.0
  TravelSV_c2_c1: tauS_c2 - tauS_c1 + 1000000.0 z_c2_c1 <= 899375.0
  TravelSV_c2_c3: tauS_c2 - tauS_c3 + 1000000.0 z_c2_c3 <= 899850.0
  TravelSV_c2_c4: tauS_c2 - tauS_c4 + 1000000.0 z_c2_c4 <= 819450.0
  TravelSV_c2_dN: tauS_c2 - tauS_dN + 1000000.0 z_c2_dN <= 889800.0
  TravelSV_c3_c1: tauS_c3 - tauS_c1 + 1000000.0 z_c3_c1 <= 882175.0
  TravelSV_c3_c2: tauS_c3 - tauS_c2 + 1000000.0 z_c3_c2 <= 899850.0
  TravelSV_c3_c4: tauS_c3 - tauS_c4 + 1000000.0 z_c3_c4 <= 837200.0
  TravelSV_c3_dN: tauS_c3 - tauS_dN + 1000000.0 z_c3_dN <= 901800.0
  TravelSV_c4_c1: tauS_c4 - tauS_c1 + 1000000.0 z_c4_c1 <= 810400.0
  TravelSV_c4_c2: tauS_c4 - tauS_c2 + 1000000.0 z_c4_c2 <= 819450.0
  TravelSV_c4_c3: tauS_c4 - tauS_c3 + 1000000.0 z_c4_c3 <= 837200.0
  TravelSV_c4_dN: tauS_c4 - tauS_dN + 1000000.0 z_c4_dN <= 848925.0
  time_window_c1_e: tauD_c1 + 80000.0 o_1 >= 250000.0
  time_window_c1_l: tauD_c1 + 80000.0 o_1 <= 400000.0
  time_window_c2_e: tauD_c2 + 80000.0 o_2 >= 500000.0
  time_window_c2_l: tauD_c2 + 80000.0 o_2 <= 650000.0
  time_window_c3_e: tauD_c3 + 80000.0 o_3 >= 100000.0
  time_window_c3_l: tauD_c3 + 80000.0 o_3 <= 250000.0
  time_window_c4_e: tauD_c4 + 80000.0 o_4 >= 500000.0
  time_window_c4_l: tauD_c4 + 80000.0 o_4 <= 650000.0
  SyncA_c1_c2_c2: 80000.0 o_1 + 1000000.0 x_c1_c2 - tauD_c2 - 20625.0 z_c1_c2 + [ tauS_c2 * z_c1_c2 ] <= 979375.0
  SyncA_c1_c2_c3: 80000.0 o_1 + 1000000.0 x_c1_c2 - tauD_c2 - 37825.0 z_c1_c3 + [ tauS_c3 * z_c1_c3 ] <= 979375.0
  SyncA_c1_c2_c4: 80000.0 o_1 + 1000000.0 x_c1_c2 - tauD_c2 - 109600.0 z_c1_c4 + [ tauS_c4 * z_c1_c4 ] <= 979375.0
  SyncA_c1_c2_dN: 80000.0 o_1 + 1000000.0 x_c1_c2 - tauD_c2 - 39525.0 z_c1_dN + [ tauS_dN * z_c1_dN ] <= 979375.0
  SyncA_c1_c3_c2: 80000.0 o_1 + 1000000.0 x_c1_c3 - tauD_c3 - 20625.0 z_c1_c2 + [ tauS_c2 * z_c1_c2 ] <= 962175.0
  SyncA_c1_c3_c3: 80000.0 o_1 + 1000000.0 x_c1_c3 - tauD_c3 - 37825.0 z_c1_c3 + [ tauS_c3 * z_c1_c3 ] <= 962175.0
  SyncA_c1_c3_c4: 80000.0 o_1 + 1000000.0 x_c1_c3 - tauD_c3 - 109600.0 z_c1_c4 + [ tauS_c4 * z_c1_c4 ] <= 962175.0
  SyncA_c1_c3_dN: 80000.0 o_1 + 1000000.0 x_c1_c3 - tauD_c3 - 39525.0 z_c1_dN + [ tauS_dN * z_c1_dN ] <= 962175.0
  SyncA_c1_c4_c2: 80000.0 o_1 + 1000000.0 x_c1_c4 - tauD_c4 - 20625.0 z_c1_c2 + [ tauS_c2 * z_c1_c2 ] <= 890400.0
  SyncA_c1_c4_c3: 80000.0 o_1 + 1000000.0 x_c1_c4 - tauD_c4 - 37825.0 z_c1_c3 + [ tauS_c3 * z_c1_c3 ] <= 890400.0
  SyncA_c1_c4_c4: 80000.0 o_1 + 1000000.0 x_c1_c4 - tauD_c4 - 109600.0 z_c1_c4 + [ tauS_c4 * z_c1_c4 ] <= 890400.0
  SyncA_c1_c4_dN: 80000.0 o_1 + 1000000.0 x_c1_c4 - tauD_c4 - 39525.0 z_c1_dN + [ tauS_dN * z_c1_dN ] <= 890400.0
  SyncA_c1_dN_c2: 80000.0 o_1 + 1000000.0 x_c1_dN - tauD_dN - 20625.0 z_c1_c2 + [ tauS_c2 * z_c1_c2 ] <= 960475.0
  SyncA_c1_dN_c3: 80000.0 o_1 + 1000000.0 x_c1_dN - tauD_dN - 37825.0 z_c1_c3 + [ tauS_c3 * z_c1_c3 ] <= 960475.0
  SyncA_c1_dN_c4: 80000.0 o_1 + 1000000.0 x_c1_dN - tauD_dN - 109600.0 z_c1_c4 + [ tauS_c4 * z_c1_c4 ] <= 960475.0
  SyncA_c1_dN_dN: 80000.0 o_1 + 1000000.0 x_c1_dN - tauD_dN - 39525.0 z_c1_dN + [ tauS_dN * z_c1_dN ] <= 960475.0
  SyncA_c2_c1_c1: 40000.0 o_2 + 1000000.0 x_c2_c1 - tauD_c1 - 20625.0 z_c2_c1 + [ tauS_c1 * z_c2_c1 ] <= 979375.0
  SyncA_c2_c1_c3: 40000.0 o_2 + 1000000.0 x_c2_c1 - tauD_c1 - 20150.0 z_c2_c3 + [ tauS_c3 * z_c2_c3 ] <= 979375.0
  SyncA_c2_c1_c4: 40000.0 o_2 + 1000000.0 x_c2_c1 - tauD_c1 - 100550.0 z_c2_c4 + [ tauS_c4 * z_c2_c4 ] <= 979375.0
  SyncA_c2_c1_dN: 40000.0 o_2 + 1000000.0 x_c2_c1 - tauD_c1 - 30200.0 z_c2_dN + [ tauS_dN * z_c2_dN ] <= 979375.0
  SyncA_c2_c3_c1: 40000.0 o_2 + 1000000.0 x_c2_c3 - tauD_c3 - 20625.0 z_c2_c1 + [ tauS_c1 * z_c2_c1 ] <= 979850.0
  SyncA_c2_c3_c3: 40000.0 o_2 + 1000000.0 x_c2_c3 - tauD_c3 - 20150.0 z_c2_c3 + [ tauS_c3 * z_c2_c3 ] <= 979850.0
  SyncA_c2_c3_c4: 40000.0 o_2 + 1000000.0 x_c2_c3 - tauD_c3 - 100550.0 z_c2_c4 + [ tauS_c4 * z_c2_c4 ] <= 979850.0
  SyncA_c2_c3_dN: 40000.0 o_2 + 1000000.0 x_c2_c3 - tauD_c3 - 30200.0 z_c2_dN + [ tauS_dN * z_c2_dN ] <= 979850.0
  SyncA_c2_c4_c1: 40000.0 o_2 + 1000000.0 x_c2_c4 - tauD_c4 - 20625.0 z_c2_c1 + [ tauS_c1 * z_c2_c1 ] <= 899450.0
  SyncA_c2_c4_c3: 40000.0 o_2 + 1000000.0 x_c2_c4 - tauD_c4 - 20150.0 z_c2_c3 + [ tauS_c3 * z_c2_c3 ] <= 899450.0
  SyncA_c2_c4_c4: 40000.0 o_2 + 1000000.0 x_c2_c4 - tauD_c4 - 100550.0 z_c2_c4 + [ tauS_c4 * z_c2_c4 ] <= 899450.0
  SyncA_c2_c4_dN: 40000.0 o_2 + 1000000.0 x_c2_c4 - tauD_c4 - 30200.0 z_c2_dN + [ tauS_dN * z_c2_dN ] <= 899450.0
  SyncA_c2_dN_c1: 40000.0 o_2 + 1000000.0 x_c2_dN - tauD_dN - 20625.0 z_c2_c1 + [ tauS_c1 * z_c2_c1 ] <= 969800.0
  SyncA_c2_dN_c3: 40000.0 o_2 + 1000000.0 x_c2_dN - tauD_dN - 20150.0 z_c2_c3 + [ tauS_c3 * z_c2_c3 ] <= 969800.0
  SyncA_c2_dN_c4: 40000.0 o_2 + 1000000.0 x_c2_dN - tauD_dN - 100550.0 z_c2_c4 + [ tauS_c4 * z_c2_c4 ] <= 969800.0
  SyncA_c2_dN_dN: 40000.0 o_2 + 1000000.0 x_c2_dN - tauD_dN - 30200.0 z_c2_dN + [ tauS_dN * z_c2_dN ] <= 969800.0
  SyncA_c3_c1_c1: 60000.0 o_3 + 1000000.0 x_c3_c1 - tauD_c1 - 37825.0 z_c3_c1 + [ tauS_c1 * z_c3_c1 ] <= 962175.0
  SyncA_c3_c1_c2: 60000.0 o_3 + 1000000.0 x_c3_c1 - tauD_c1 - 20150.0 z_c3_c2 + [ tauS_c2 * z_c3_c2 ] <= 962175.0
  SyncA_c3_c1_c4: 60000.0 o_3 + 1000000.0 x_c3_c1 - tauD_c1 - 82800.0 z_c3_c4 + [ tauS_c4 * z_c3_c4 ] <= 962175.0
  SyncA_c3_c1_dN: 60000.0 o_3 + 1000000.0 x_c3_c1 - tauD_c1 - 18200.0 z_c3_dN + [ tauS_dN * z_c3_dN ] <= 962175.0
  SyncA_c3_c2_c1: 60000.0 o_3 + 1000000.0 x_c3_c2 - tauD_c2 - 37825.0 z_c3_c1 + [ tauS_c1 * z_c3_c1 ] <= 979850.0
  SyncA_c3_c2_c2: 60000.0 o_3 + 1000000.0 x_c3_c2 - tauD_c2 - 20150.0 z_c3_c2 + [ tauS_c2 * z_c3_c2 ] <= 979850.0
  SyncA_c3_c2_c4: 60000.0 o_3 + 1000000.0 x_c3_c2 - tauD_c2 - 82800.0 z_c3_c4 + [ tauS_c4 * z_c3_c4 ] <= 979850.0
  SyncA_c3_c2_dN: 60000.0 o_3 + 1000000.0 x_c3_c2 - tauD_c2 - 18200.0 z_c3_dN + [ tauS_dN * z_c3_dN ] <= 979850.0
  SyncA_c3_c4_c1: 60000.0 o_3 + 1000000.0 x_c3_c4 - tauD_c4 - 37825.0 z_c3_c1 + [ tauS_c1 * z_c3_c1 ] <= 917200.0
  SyncA_c3_c4_c2: 60000.0 o_3 + 1000000.0 x_c3_c4 - tauD_c4 - 20150.0 z_c3_c2 + [ tauS_c2 * z_c3_c2 ] <= 917200.0
  SyncA_c3_c4_c4: 60000.0 o_3 + 1000000.0 x_c3_c4 - tauD_c4 - 82800.0 z_c3_c4 + [ tauS_c4 * z_c3_c4 ] <= 917200.0
  SyncA_c3_c4_dN: 60000.0 o_3 + 1000000.0 x_c3_c4 - tauD_c4 - 18200.0 z_c3_dN + [ tauS_dN * z_c3_dN ] <= 917200.0
  SyncA_c3_dN_c1: 60000.0 o_3 + 1000000.0 x_c3_dN - tauD_dN - 37825.0 z_c3_c1 + [ tauS_c1 * z_c3_c1 ] <= 981800.0
  SyncA_c3_dN_c2: 60000.0 o_3 + 1000000.0 x_c3_dN - tauD_dN - 20150.0 z_c3_c2 + [ tauS_c2 * z_c3_c2 ] <= 981800.0
  SyncA_c3_dN_c4: 60000.0 o_3 + 1000000.0 x_c3_dN - tauD_dN - 82800.0 z_c3_c4 + [ tauS_c4 * z_c3_c4 ] <= 981800.0
  SyncA_c3_dN_dN: 60000.0 o_3 + 1000000.0 x_c3_dN - tauD_dN - 18200.0 z_c3_dN + [ tauS_dN * z_c3_dN ] <= 981800.0
  SyncA_c4_c1_c1: 70000.0 o_4 + 1000000.0 x_c4_c1 - tauD_c1 - 109600.0 z_c4_c1 + [ tauS_c1 * z_c4_c1 ] <= 890400.0
  SyncA_c4_c1_c2: 70000.0 o_4 + 1000000.0 x_c4_c1 - tauD_c1 - 100550.0 z_c4_c2 + [ tauS_c2 * z_c4_c2 ] <= 890400.0
  SyncA_c4_c1_c3: 70000.0 o_4 + 1000000.0 x_c4_c1 - tauD_c1 - 82800.0 z_c4_c3 + [ tauS_c3 * z_c4_c3 ] <= 890400.0
  SyncA_c4_c1_dN: 70000.0 o_4 + 1000000.0 x_c4_c1 - tauD_c1 - 71075.0 z_c4_dN + [ tauS_dN * z_c4_dN ] <= 890400.0
  SyncA_c4_c2_c1: 70000.0 o_4 + 1000000.0 x_c4_c2 - tauD_c2 - 109600.0 z_c4_c1 + [ tauS_c1 * z_c4_c1 ] <= 899450.0
  SyncA_c4_c2_c2: 70000.0 o_4 + 1000000.0 x_c4_c2 - tauD_c2 - 100550.0 z_c4_c2 + [ tauS_c2 * z_c4_c2 ] <= 899450.0
  SyncA_c4_c2_c3: 70000.0 o_4 + 1000000.0 x_c4_c2 - tauD_c2 - 82800.0 z_c4_c3 + [ tauS_c3 * z_c4_c3 ] <= 899450.0
  SyncA_c4_c2_dN: 70000.0 o_4 + 1000000.0 x_c4_c2 - tauD_c2 - 71075.0 z_c4_dN + [ tauS_dN * z_c4_dN ] <= 899450.0
  SyncA_c4_c3_c1: 70000.0 o_4 + 1000000.0 x_c4_c3 - tauD_c3 - 109600.0 z_c4_c1 + [ tauS_c1 * z_c4_c1 ] <= 917200.0
  SyncA_c4_c3_c2: 70000.0 o_4 + 1000000.0 x_c4_c3 - tauD_c3 - 100550.0 z_c4_c2 + [ tauS_c2 * z_c4_c2 ] <= 917200.0
  SyncA_c4_c3_c3: 70000.0 o_4 + 1000000.0 x_c4_c3 - tauD_c3 - 82800.0 z_c4_c3 + [ tauS_c3 * z_c4_c3 ] <= 917200.0
  SyncA_c4_c3_dN: 70000.0 o_4 + 1000000.0 x_c4_c3 - tauD_c3 - 71075.0 z_c4_dN + [ tauS_dN * z_c4_dN ] <= 917200.0
  SyncA_c4_dN_c1: 70000.0 o_4 + 1000000.0 x_c4_dN - tauD_dN - 109600.0 z_c4_c1 + [ tauS_c1 * z_c4_c1 ] <= 928925.0
  SyncA_c4_dN_c2: 70000.0 o_4 + 1000000.0 x_c4_dN - tauD_dN - 100550.0 z_c4_c2 + [ tauS_c2 * z_c4_c2 ] <= 928925.0
  SyncA_c4_dN_c3: 70000.0 o_4 + 1000000.0 x_c4_dN - tauD_dN - 82800.0 z_c4_c3 + [ tauS_c3 * z_c4_c3 ] <= 928925.0
  SyncA_c4_dN_dN: 70000.0 o_4 + 1000000.0 x_c4_dN - tauD_dN - 71075.0 z_c4_dN + [ tauS_dN * z_c4_dN ] <= 928925.0
  SVFirst_c1_c2: tauS_c2 - tauD_c1 + 80000.0 o_1 - 1000000.0 z_c1_c2 >= -819375.0
  SVFirst_c1_c3: tauS_c3 - tauD_c1 + 80000.0 o_1 - 1000000.0 z_c1_c3 >= -802175.0
  SVFirst_c1_c4: tauS_c4 - tauD_c1 + 80000.0 o_1 - 1000000.0 z_c1_c4 >= -730400.0
  SVFirst_c1_dN:  tauS_dN - tauD_c1 + 80000.0 o_1 - 1000000.0 z_c1_dN >= -800475.0
  SVFirst_c2_c1: tauS_c1 - tauD_c2 + 40000.0 o_2 - 1000000.0 z_c2_c1 >= -859375.0
  SVFirst_c2_c3: tauS_c3 - tauD_c2 + 40000.0 o_2 - 1000000.0 z_c2_c3 >= -859850.0
  SVFirst_c2_c4: tauS_c4 - tauD_c2 + 40000.0 o_2 - 1000000.0 z_c2_c4 >= -779450.0
  SVFirst_c2_dN:  tauS_dN - tauD_c2 + 40000.0 o_2 - 1000000.0 z_c2_dN >= -849800.0
  SVFirst_c3_c1: tauS_c1 - tauD_c3 + 60000.0 o_3 - 1000000.0 z_c3_c1 >= -822175.0
  SVFirst_c3_c2: tauS_c2 - tauD_c3 + 60000.0 o_3 - 1000000.0 z_c3_c2 >= -839850.0
  SVFirst_c3_c4: tauS_c4 - tauD_c3 + 60000.0 o_3 - 1000000.0 z_c3_c4 >= -777200.0
  SVFirst_c3_dN:  tauS_dN - tauD_c3 + 60000.0 o_3 - 1000000.0 z_c3_dN >= -841800.0
  SVFirst_c4_c1: tauS_c1 - tauD_c4 + 70000.0 o_4 - 1000000.0 z_c4_c1 >= -740400.0
  SVFirst_c4_c2: tauS_c2 - tauD_c4 + 70000.0 o_4 - 1000000.0 z_c4_c2 >= -749450.0
  SVFirst_c4_c3: tauS_c3 - tauD_c4 + 70000.0 o_4 - 1000000.0 z_c4_c3 >= -767200.0
  SVFirst_c4_dN:  tauS_dN - tauD_c4 + 70000.0 o_4 - 1000000.0 z_c4_dN >= -778925.0
  Precedence_Swap_c1:  p_1 - z_d0_c1 - z_c2_c1 - z_c3_c1 - z_c4_c1 = 0
  Precedence_Swap_c2:  p_2 - z_d0_c2 - z_c1_c2 - z_c3_c2 - z_c4_c2 = 0
  Precedence_Swap_c3:  p_3 - z_d0_c3 - z_c1_c3 - z_c2_c3 - z_c4_c3 = 0
  Precedence_Swap_c4:  p_4 - z_d0_c4 - z_c1_c4 - z_c2_c4 - z_c3_c4 = 0
  Order_c1:  o_1 - p_1 <= 0
  Order_c2:  o_2 - p_2 <= 0
  Order_c3:  o_3 - p_3 <= 0
  Order_c4:  o_4 - p_4 <= 0
  WorkingTimeS_c1:  tauS_c1 <= 880475.0
  WorkingTimeS_c2:  tauS_c2 <= 889800.0
  WorkingTimeS_c3:  tauS_c3 <= 901800.0
  WorkingTimeS_c4:  tauS_c4 <= 848925.0
  Freight_c1_c2:  k_c2 - k_c1 + 100000.0 x_c1_c2 <= 80000.0
  Freight_c1_c3:  k_c3 - k_c1 + 100000.0 x_c1_c3 <= 80000.0
  Freight_c1_c4:  k_c4 - k_c1 + 100000.0 x_c1_c4 <= 80000.0
  Freight_c1_dN:  k_dN - k_c1 + 100000.0 x_c1_dN <= 80000.0
  Freight_c2_c1:  k_c1 - k_c2 + 100000.0 x_c2_c1 <= 50000.0
  Freight_c2_c3:  k_c3 - k_c2 + 100000.0 x_c2_c3 <= 50000.0
  Freight_c2_c4:  k_c4 - k_c2 + 100000.0 x_c2_c4 <= 50000.0
  Freight_c2_dN:  k_dN - k_c2 + 100000.0 x_c2_dN <= 50000.0
  Freight_c3_c1:  k_c1 - k_c3 + 100000.0 x_c3_c1 <= 80000.0
  Freight_c3_c2:  k_c2 - k_c3 + 100000.0 x_c3_c2 <= 80000.0
  Freight_c3_c4:  k_c4 - k_c3 + 100000.0 x_c3_c4 <= 80000.0
  Freight_c3_dN:  k_dN - k_c3 + 100000.0 x_c3_dN <= 80000.0
  Freight_c4_c1:  k_c1 - k_c4 + 100000.0 x_c4_c1 <= 50000.0
  Freight_c4_c2:  k_c2 - k_c4 + 100000.0 x_c4_c2 <= 50000.0
  Freight_c4_c3:  k_c3 - k_c4 + 100000.0 x_c4_c3 <= 50000.0
  Freight_c4_dN:  k_dN - k_c4 + 100000.0 x_c4_dN <= 50000.0
  FuelDV_d0_c1:  phi_c1 - phi_d0 + 110577.0 x_d0_c1 <= 100000.0
  FuelDV_d0_c2:  phi_c2 - phi_d0 + 108082.0 x_d0_c2 <= 100000.0
  FuelDV_d0_c3:  phi_c3 - phi_d0 + 104870.0 x_d0_c3 <= 100000.0
  FuelDV_d0_c4:  phi_c4 - phi_d0 + 119020.0 x_d0_c4 <= 100000.0
  FuelDV_c1_c2:  phi_c2 - phi_c1 + 105519.0 x_c1_c2 <= 100000.0
  FuelDV_c1_c3:  phi_c3 - phi_c1 + 110122.0 x_c1_c3 <= 100000.0
  FuelDV_c1_c4:  phi_c4 - phi_c1 + 129329.0 x_c1_c4 <= 100000.0
  FuelDV_c1_dN:  phi_dN - phi_c1 + 110577.0 x_c1_dN <= 100000.0
  FuelDV_c2_c1:  phi_c1 - phi_c2 + 105519.0 x_c2_c1 <= 100000.0
  FuelDV_c2_c3:  phi_c3 - phi_c2 + 105392.0 x_c2_c3 <= 100000.0
  FuelDV_c2_c4:  phi_c4 - phi_c2 + 126907.0 x_c2_c4 <= 100000.0
  FuelDV_c2_dN:  phi_dN - phi_c2 + 108082.0 x_c2_dN <= 100000.0
  FuelDV_c3_c1:  phi_c1 - phi_c3 + 110122.0 x_c3_c1 <= 100000.0
  FuelDV_c3_c2:  phi_c2 - phi_c3 + 105392.0 x_c3_c2 <= 100000.0
  FuelDV_c3_c4:  phi_c4 - phi_c3 + 122157.0 x_c3_c4 <= 100000.0
  FuelDV_c3_dN:  phi_dN - phi_c3 + 104870.0 x_c3_dN <= 100000.0
  FuelDV_c4_c1:  phi_c1 - phi_c4 + 129329.0 x_c4_c1 <= 100000.0
  FuelDV_c4_c2:  phi_c2 - phi_c4 + 126907.0 x_c4_c2 <= 100000.0
  FuelDV_c4_c3:  phi_c3 - phi_c4 + 122157.0 x_c4_c3 <= 100000.0
  FuelDV_c4_dN:  phi_dN - phi_c4 + 119020.0 x_c4_dN <= 100000.0
  WorkingTimeD_c1:  tauD_c1 + 80000.0 p_1 <= 880475.0
  WorkingTimeD_c2:  tauD_c2 + 80000.0 p_2 <= 929800.0
  WorkingTimeD_c3:  tauD_c3 + 80000.0 p_3 <= 921800.0
  WorkingTimeD_c4:  tauD_c4 + 80000.0 p_4 <= 858925.0
Bounds
0 <= k_c1 <= 100000.0
0 <= k_c2 <= 100000.0
0 <= k_c3 <= 100000.0
0 <= k_c4 <= 100000.0
0 <= k_dN <= 100000.0
0 <= phi_c1 <= 100000.0
0 <= phi_c2 <= 100000.0
0 <= phi_c3 <= 100000.0
0 <= phi_c4 <= 100000.0
0 <= phi_d0 <= 100000.0
0 <= phi_dN <= 100000.0
0 <= tauD_c1 <= 1000000.0
0 <= tauD_c2 <= 1000000.0
0 <= tauD_c3 <= 1000000.0
0 <= tauD_c4 <= 1000000.0
0 <= tauD_d0 <= 1000000.0
0 <= tauD_dN <= 1000000.0
0 <= tauS_c1 <= 1000000.0
0 <= tauS_c2 <= 1000000.0
0 <= tauS_c3 <= 1000000.0
0 <= tauS_c4 <= 1000000.0
0 <= tauS_d0 <= 1000000.0
0 <= tauS_dN <= 1000000.0
Generals
  k_c1
  k_c2
  k_c3
  k_c4
  k_dN
  phi_c1
  phi_c2
  phi_c3
  phi_c4
  phi_d0
  phi_dN
  tauD_c1
  tauD_c2
  tauD_c3
  tauD_c4
  tauD_d0
  tauD_dN
  tauS_c1
  tauS_c2
  tauS_c3
  tauS_c4
  tauS_d0
  tauS_dN
Binary
  o_1
  o_2
  o_3
  o_4
  p_1
  p_2
  p_3
  p_4
  x_c1_c2
  x_c1_c3
  x_c1_c4
  x_c1_dN
  x_c2_c1
  x_c2_c3
  x_c2_c4
  x_c2_dN
  x_c3_c1
  x_c3_c2
  x_c3_c4
  x_c3_dN
  x_c4_c1
  x_c4_c2
  x_c4_c3
  x_c4_dN
  x_d0_c1
  x_d0_c2
  x_d0_c3
  x_d0_c4
  z_c1_c2
  z_c1_c3
  z_c1_c4
  z_c1_dN
  z_c2_c1
  z_c2_c3
  z_c2_c4
  z_c2_dN
  z_c3_c1
  z_c3_c2
  z_c3_c4
  z_c3_dN
  z_c4_c1
  z_c4_c2
  z_c4_c3
  z_c4_dN
  z_d0_c1
  z_d0_c2
  z_d0_c3
  z_d0_c4
End
